assets/logs/8_8x8_clingo/8_8x8_clingo.solution.log

---------------------------------
| 56| 17| 44| 25| 52| 41| 36|  0|
---------------------------------
| 46| 27| 54| 19| 42| 23| 49|  0|
---------------------------------
|  0|  0| 15| 50| 39| 38| 43| 34|
---------------------------------
| 29| 48| 18| 40| 21| 51|  1| 47|
---------------------------------
| 16| 13|  8| 37| 20| 45| 32| 53|
---------------------------------
|  6| 31|  0| 11| 10|  0| 26|  3|
---------------------------------
|  0| 14| 35|  2|  7| 22| 55| 30|
---------------------------------
| 33|  4|  9| 12| 57| 28|  5| 24|
---------------------------------

| n = 8 | k = 6 | coverage = 62, 96.875%
 Time 300.001
 Name 8_8x8_clingo

